2-dimensional/CL_05_25_01.vbp
2
1000 1000 
25
41 31 30
79 89 72
29 80 4
34 47 88
36 56 54
75 49 64
69 67 90
35 28 26
88 97 94
71 92 28
76 79 72
68 74 49
40 46 54
83 59 19
90 56 28
51 79 61
58 44 84
78 42 23
28 41 67
75 33 53
34 33 54
48 84 16
58 26 9
31 28 54
34 55 77
