2-dimensional/CL_05_25_01.txt
1000 1000 
0 30 41 31 
1 72 79 89 
2 4 29 80 
3 88 34 47 
4 54 36 56 
5 64 75 49 
6 90 69 67 
7 26 35 28 
8 94 88 97 
9 28 71 92 
10 72 76 79 
11 49 68 74 
12 54 40 46 
13 19 83 59 
14 28 90 56 
15 61 51 79 
16 84 58 44 
17 23 78 42 
18 67 28 41 
19 53 75 33 
20 54 34 33 
21 16 48 84 
22 9 58 26 
23 54 31 28 
24 77 34 55 
